language ESSENCE' 1.0

letting jobs = 102
letting horizon = 817
letting resourcesRenew = 2
letting resourcesNonrenew = 2
letting resourceLimits = [84, 78, 294, 266]
letting successors = [[2, 3, 4, 5, 6, 7, 8, 9, 10, 11, 12, 13, 15, 16, 17, 19, 21, 22, 23, 24, 25, 26, 27, 28, 30, 31, 32, 34, 39, 40, 49], [100, 98, 96, 95, 93, 91, 67, 65, 57, 56, 54, 53, 52, 44, 38, 37, 35, 14], [101, 98, 97, 90, 89, 62, 54, 48, 43, 42, 41, 37, 29, 20], [100, 99, 98, 96, 93, 90, 66, 55, 53, 51, 42, 37, 36, 20], [98, 94, 93, 87, 85, 82, 66, 61, 55, 54, 47, 45, 33, 18], [100, 99, 98, 97, 96, 93, 92, 91, 87, 86, 66, 64, 63, 62, 58, 56, 55, 53, 52, 51, 47, 45, 44, 37], [98, 97, 96, 93, 91, 90, 85, 61, 55, 47, 33, 20], [100, 98, 95, 94, 93, 92, 91, 90, 87, 86, 82, 79, 66, 65, 63, 61, 55, 53, 51, 44, 33], [98, 96, 94, 92, 91, 86, 85, 83, 66, 65, 64, 62, 56, 52, 41, 37, 35], [100, 98, 97, 95, 94, 91, 90, 89, 87, 86, 85, 84, 83, 79, 65, 64, 63, 41, 37], [95, 94, 92, 91, 90, 85, 83, 75, 66, 62, 61, 56, 35, 33], [100, 99, 98, 95, 93, 91, 87, 86, 85, 83, 80, 79, 67, 66, 65, 64, 60, 58, 57, 55, 54, 50], [99, 98, 95, 93, 91, 89, 88, 87, 86, 85, 83, 82, 80, 79, 78, 67, 65, 58, 57, 55, 46], [101, 99, 97, 94, 92, 90, 89, 88, 87, 86, 85, 84, 82, 79, 76, 64, 62, 60, 55, 50, 46], [98, 96, 95, 93, 92, 90, 86, 83, 81, 77, 76, 74, 66, 60, 56, 35], [97, 92, 90, 89, 88, 80, 79, 77, 76, 72, 66, 65, 64, 63, 60, 57, 56, 55, 50], [97, 94, 93, 90, 87, 86, 85, 83, 82, 79, 78, 60, 59, 58, 46, 44], [100, 97, 96, 95, 92, 91, 90, 89, 88, 86, 84, 83, 81, 79, 77, 76, 64, 60, 59, 46], [96, 94, 91, 90, 89, 86, 84, 83, 80, 79, 77, 76, 75, 72, 55, 54, 42], [95, 94, 92, 88, 87, 86, 84, 83, 80, 79, 78, 67, 60, 57, 56, 46], [101, 98, 95, 94, 93, 87, 86, 85, 84, 63, 56, 55, 50, 41], [92, 91, 90, 89, 88, 86, 84, 83, 82, 80, 79, 77, 76, 64, 63, 61, 59, 53, 50], [98, 96, 94, 87, 86, 85, 84, 83, 82, 77, 63, 61, 59, 58, 53, 50], [96, 90, 86, 85, 84, 83, 81, 80, 77, 76, 75, 65, 56, 48, 46], [94, 93, 86, 85, 84, 81, 80, 79, 77, 64, 58, 52, 50, 46], [93, 92, 90, 88, 83, 81, 77, 73, 71, 63, 61, 60, 58, 56], [95, 90, 87, 85, 82, 80, 77, 75, 74, 72, 66, 64, 55, 54], [100, 97, 96, 90, 87, 86, 85, 80, 79, 78, 76, 74, 73, 72, 68, 64, 63], [99, 91, 86, 85, 83, 81, 80, 79, 74, 73, 72, 69, 64, 63, 60], [91, 89, 88, 85, 84, 79, 78, 77, 75, 74, 72, 63, 57, 55], [89, 88, 82, 81, 79, 77, 75, 68, 65, 64, 63, 50], [96, 93, 83, 81, 79, 78, 76, 73, 71, 70, 60, 56], [99, 89, 88, 84, 81, 77, 76, 64, 59, 50], [97, 96, 89, 83, 81, 77, 76, 75, 50], [89, 87, 84, 82, 80, 79, 73, 72, 63, 55], [97, 91, 85, 83, 78, 76, 72, 71, 63, 59], [88, 80, 77, 59, 50], [94, 92, 84, 83, 80, 76, 75, 73, 72, 70, 69], [97, 92, 79, 77, 74, 72, 71, 70, 59], [96, 84, 82, 79, 77, 74, 70, 68, 64], [82, 75, 58, 57], [87, 78, 74, 73, 68, 65, 64], [100, 80, 79, 72, 55], [84, 81, 80, 77, 75, 74, 70, 68], [95, 83, 81, 76, 72, 71, 69, 68], [74, 73, 72, 71, 69, 68, 63], [80, 79, 76, 74, 72, 59], [93, 73, 72, 71, 59], [82, 80, 73, 70, 60], [78, 74, 73, 71, 70, 69], [85, 83, 80, 72, 71, 68], [75, 74, 59], [75, 72, 70, 69], [73, 71, 63], [70, 59], [82, 59], [81, 70, 69], [76, 72, 68], [69, 68], [75, 68], [70, 69], [78, 70], [70], [71], [69], [71], [77], [102], [102], [102], [102], [102], [102], [102], [102], [102], [102], [102], [102], [102], [102], [102], [102], [102], [102], [102], [102], [102], [102], [102], [102], [102], [102], [102], [102], [102], [102], [102], [102], [102], [102], []]
letting durations = [[0], [2, 5, 6], [1, 6, 7], [3, 8, 9], [2, 4, 4], [2, 8, 10], [6, 6, 8], [2, 9, 10], [2, 6, 6], [5, 6, 7], [1, 9, 9], [4, 8, 10], [1, 8, 9], [2, 5, 6], [1, 3, 6], [5, 9, 10], [1, 3, 9], [4, 5, 8], [4, 8, 9], [1, 5, 7], [4, 9, 9], [6, 8, 9], [2, 5, 5], [1, 6, 10], [2, 3, 4], [5, 7, 10], [1, 5, 8], [1, 8, 10], [1, 2, 7], [2, 9, 10], [4, 6, 6], [1, 7, 9], [4, 7, 9], [3, 6, 8], [5, 6, 10], [4, 8, 9], [3, 5, 8], [1, 5, 10], [1, 9, 9], [5, 6, 9], [7, 9, 10], [4, 10, 10], [1, 2, 10], [1, 7, 7], [1, 6, 9], [8, 10, 10], [2, 6, 10], [2, 6, 7], [1, 9, 10], [1, 8, 9], [5, 10, 10], [5, 9, 10], [2, 4, 7], [1, 7, 8], [2, 5, 10], [1, 5, 5], [2, 2, 6], [3, 4, 6], [1, 3, 3], [4, 6, 6], [3, 8, 10], [2, 7, 7], [2, 3, 10], [3, 4, 10], [2, 7, 10], [1, 3, 6], [5, 7, 8], [2, 9, 10], [2, 3, 9], [6, 6, 10], [2, 4, 6], [2, 4, 10], [4, 7, 8], [1, 1, 8], [1, 5, 6], [3, 4, 8], [1, 4, 5], [5, 7, 8], [4, 5, 7], [1, 3, 5], [3, 3, 4], [9, 9, 10], [3, 4, 8], [1, 8, 10], [1, 8, 9], [3, 6, 10], [8, 8, 10], [5, 8, 9], [1, 5, 6], [1, 2, 3], [1, 7, 9], [3, 4, 5], [3, 5, 10], [4, 9, 10], [2, 6, 10], [3, 6, 7], [1, 4, 10], [1, 2, 9], [3, 4, 8], [1, 2, 9], [4, 5, 8], [0]]
letting resourceUsage = [[[0, 0, 0, 0]], [[0, 7, 0, 10], [1, 0, 3, 0], [1, 0, 2, 0]], [[9, 0, 7, 0], [0, 3, 0, 8], [0, 1, 0, 7]], [[7, 0, 6, 0], [7, 0, 5, 0], [2, 0, 0, 4]], [[1, 0, 0, 8], [1, 0, 0, 7], [0, 8, 2, 0]], [[0, 9, 9, 0], [0, 5, 0, 3], [6, 0, 4, 0]], [[0, 7, 2, 0], [7, 0, 0, 4], [4, 0, 0, 3]], [[10, 0, 2, 0], [9, 0, 3, 0], [9, 0, 2, 0]], [[0, 5, 0, 7], [4, 0, 3, 0], [2, 0, 0, 5]], [[7, 0, 10, 0], [0, 6, 9, 0], [0, 6, 7, 0]], [[5, 0, 7, 0], [0, 9, 5, 0], [1, 0, 0, 5]], [[7, 0, 0, 6], [5, 0, 8, 0], [3, 0, 8, 0]], [[0, 7, 7, 0], [4, 0, 0, 5], [4, 0, 6, 0]], [[0, 9, 8, 0], [0, 6, 0, 9], [4, 0, 0, 8]], [[4, 0, 4, 0], [4, 0, 3, 0], [4, 0, 2, 0]], [[0, 7, 8, 0], [0, 5, 7, 0], [4, 0, 0, 6]], [[8, 0, 9, 0], [0, 4, 0, 3], [7, 0, 9, 0]], [[0, 4, 8, 0], [0, 4, 5, 0], [0, 4, 4, 0]], [[8, 0, 0, 6], [0, 9, 4, 0], [0, 9, 3, 0]], [[5, 0, 0, 9], [0, 6, 1, 0], [4, 0, 1, 0]], [[6, 0, 5, 0], [0, 9, 5, 0], [4, 0, 0, 2]], [[0, 8, 0, 9], [2, 0, 7, 0], [1, 0, 5, 0]], [[0, 4, 6, 0], [0, 4, 0, 5], [0, 2, 5, 0]], [[0, 4, 0, 8], [1, 0, 0, 7], [1, 0, 0, 6]], [[0, 10, 5, 0], [0, 5, 4, 0], [0, 1, 0, 3]], [[9, 0, 0, 6], [0, 2, 0, 5], [0, 2, 0, 3]], [[5, 0, 7, 0], [4, 0, 6, 0], [0, 2, 0, 6]], [[6, 0, 5, 0], [5, 0, 4, 0], [5, 0, 0, 6]], [[0, 6, 9, 0], [0, 6, 5, 0], [4, 0, 0, 4]], [[10, 0, 10, 0], [8, 0, 8, 0], [0, 6, 0, 8]], [[0, 6, 0, 7], [0, 4, 6, 0], [0, 4, 0, 4]], [[8, 0, 6, 0], [5, 0, 0, 4], [0, 3, 0, 3]], [[0, 1, 0, 10], [6, 0, 3, 0], [4, 0, 2, 0]], [[7, 0, 7, 0], [6, 0, 0, 2], [6, 0, 0, 1]], [[10, 0, 3, 0], [7, 0, 2, 0], [0, 1, 2, 0]], [[8, 0, 8, 0], [0, 2, 0, 5], [8, 0, 6, 0]], [[0, 8, 7, 0], [5, 0, 3, 0], [0, 6, 2, 0]], [[0, 9, 10, 0], [4, 0, 7, 0], [0, 7, 0, 1]], [[6, 0, 8, 0], [0, 1, 5, 0], [3, 0, 0, 4]], [[5, 0, 7, 0], [0, 4, 5, 0], [0, 4, 3, 0]], [[5, 0, 0, 8], [4, 0, 7, 0], [3, 0, 7, 0]], [[9, 0, 7, 0], [8, 0, 0, 3], [0, 6, 7, 0]], [[10, 0, 1, 0], [7, 0, 1, 0], [0, 5, 1, 0]], [[0, 10, 7, 0], [0, 6, 0, 5], [0, 6, 2, 0]], [[9, 0, 3, 0], [7, 0, 0, 7], [0, 4, 0, 7]], [[0, 3, 0, 6], [0, 2, 5, 0], [0, 1, 0, 2]], [[0, 5, 6, 0], [5, 0, 5, 0], [0, 5, 0, 6]], [[0, 5, 7, 0], [0, 2, 0, 9], [0, 2, 3, 0]], [[0, 6, 0, 8], [0, 6, 0, 7], [1, 0, 0, 7]], [[0, 8, 9, 0], [7, 0, 0, 7], [0, 5, 0, 6]], [[4, 0, 0, 8], [0, 3, 0, 7], [0, 3, 2, 0]], [[8, 0, 0, 7], [7, 0, 3, 0], [7, 0, 1, 0]], [[0, 7, 5, 0], [5, 0, 0, 6], [0, 1, 4, 0]], [[0, 8, 2, 0], [2, 0, 0, 4], [1, 0, 0, 4]], [[3, 0, 8, 0], [0, 8, 0, 3], [0, 7, 0, 3]], [[0, 6, 3, 0], [4, 0, 3, 0], [0, 2, 0, 8]], [[7, 0, 7, 0], [0, 4, 0, 5], [0, 3, 0, 5]], [[9, 0, 0, 9], [0, 8, 8, 0], [0, 6, 8, 0]], [[0, 5, 2, 0], [0, 5, 0, 4], [0, 2, 2, 0]], [[0, 7, 0, 9], [4, 0, 0, 9], [0, 2, 6, 0]], [[8, 0, 10, 0], [0, 4, 0, 7], [0, 3, 6, 0]], [[4, 0, 1, 0], [0, 5, 1, 0], [0, 5, 0, 2]], [[0, 7, 8, 0], [0, 5, 7, 0], [4, 0, 6, 0]], [[0, 9, 10, 0], [5, 0, 8, 0], [0, 6, 6, 0]], [[5, 0, 8, 0], [0, 2, 0, 2], [5, 0, 3, 0]], [[0, 6, 0, 3], [0, 6, 8, 0], [0, 6, 0, 2]], [[10, 0, 0, 8], [0, 3, 0, 7], [0, 2, 0, 7]], [[0, 6, 0, 4], [0, 5, 8, 0], [0, 4, 8, 0]], [[0, 7, 0, 7], [4, 0, 5, 0], [4, 0, 4, 0]], [[8, 0, 3, 0], [0, 7, 2, 0], [0, 6, 0, 6]], [[0, 5, 10, 0], [4, 0, 0, 8], [0, 5, 8, 0]], [[9, 0, 0, 10], [0, 8, 2, 0], [6, 0, 1, 0]], [[0, 2, 0, 3], [8, 0, 0, 3], [7, 0, 0, 2]], [[0, 9, 6, 0], [0, 6, 0, 2], [8, 0, 5, 0]], [[5, 0, 3, 0], [0, 3, 1, 0], [0, 2, 1, 0]], [[6, 0, 9, 0], [3, 0, 4, 0], [0, 4, 0, 4]], [[0, 3, 7, 0], [0, 2, 7, 0], [4, 0, 4, 0]], [[4, 0, 0, 10], [4, 0, 0, 8], [0, 2, 6, 0]], [[8, 0, 6, 0], [7, 0, 0, 5], [0, 4, 4, 0]], [[6, 0, 0, 8], [0, 8, 4, 0], [0, 7, 4, 0]], [[0, 3, 0, 6], [8, 0, 0, 4], [0, 2, 0, 2]], [[7, 0, 0, 8], [0, 1, 0, 7], [7, 0, 4, 0]], [[0, 6, 0, 7], [0, 5, 6, 0], [0, 4, 0, 5]], [[6, 0, 0, 5], [0, 6, 5, 0], [0, 6, 4, 0]], [[6, 0, 0, 4], [6, 0, 8, 0], [4, 0, 6, 0]], [[4, 0, 0, 6], [4, 0, 0, 5], [4, 0, 0, 4]], [[5, 0, 6, 0], [0, 3, 0, 4], [0, 1, 5, 0]], [[0, 9, 7, 0], [0, 5, 6, 0], [6, 0, 0, 5]], [[7, 0, 10, 0], [0, 3, 8, 0], [0, 2, 8, 0]], [[0, 10, 3, 0], [0, 9, 0, 5], [7, 0, 3, 0]], [[8, 0, 0, 8], [6, 0, 8, 0], [6, 0, 7, 0]], [[3, 0, 0, 4], [0, 5, 0, 3], [0, 1, 0, 2]], [[0, 6, 3, 0], [2, 0, 3, 0], [2, 0, 2, 0]], [[10, 0, 0, 6], [8, 0, 5, 0], [0, 6, 0, 5]], [[0, 8, 0, 3], [0, 6, 2, 0], [0, 6, 0, 3]], [[0, 8, 8, 0], [0, 7, 6, 0], [0, 6, 0, 2]], [[0, 8, 5, 0], [5, 0, 0, 6], [5, 0, 0, 4]], [[0, 6, 0, 9], [0, 6, 8, 0], [0, 6, 0, 1]], [[3, 0, 3, 0], [0, 9, 0, 5], [0, 9, 0, 4]], [[8, 0, 5, 0], [8, 0, 0, 3], [8, 0, 2, 0]], [[0, 5, 0, 9], [0, 5, 0, 8], [5, 0, 2, 0]], [[0, 0, 0, 0]]]
